c Circuit 3 formula
c Complex circuit configuration testing satisfiability
c This formula represents a moderately complex circuit design
c that should have at least one valid variable assignment
p cnf 12 28
1 2 -3 0
2 3 4 0
-1 -2 5 0
-4 5 6 0
1 -5 7 0
-6 -7 1 0
3 -4 -5 0
7 2 -6 0
-1 4 6 0
5 -2 -7 0
-3 6 7 0
1 3 -6 0
-2 4 5 0
6 -7 -1 0
8 9 -10 0
-8 10 11 0
9 -11 12 0
-9 -10 8 0
10 11 -12 0
-11 12 1 0
8 -12 2 0
-8 9 3 0
10 -9 4 0
11 12 -5 0
-10 -11 6 0
8 10 -7 0
-12 9 11 0
1 8 -10 0